language Essence 1.3

letting blksize_delta be
        function(1 --> 10, 2 --> 9, 3 --> 9, 4 --> 9, 5 --> 9, 6 --> 9, 7 --> 9, 8 --> 9, 9 --> 9, 10 --> 9, 11 --> 9,
                 12 --> 9, 13 --> 9, 14 --> 9, 15 --> 9, 16 --> 9, 17 --> 9, 18 --> 9, 19 --> 9, 20 --> 9, 21 --> 9,
                 22 --> 9, 23 --> 9, 24 --> 9, 25 --> 9, 26 --> 9, 27 --> 9, 28 --> 9, 29 --> 9, 30 --> 9, 31 --> 9,
                 32 --> 9, 33 --> 9, 34 --> 10)
letting maxcars be
        function(1 --> 8, 2 --> 8, 3 --> 8, 4 --> 8, 5 --> 8, 6 --> 8, 7 --> 8, 8 --> 9, 9 --> 8, 10 --> 8, 11 --> 8,
                 12 --> 10, 13 --> 8, 14 --> 9, 15 --> 8, 16 --> 8, 17 --> 8, 18 --> 9, 19 --> 9, 20 --> 8, 21 --> 9,
                 22 --> 9, 23 --> 8, 24 --> 8, 25 --> 8, 26 --> 8, 27 --> 8, 28 --> 8, 29 --> 8, 30 --> 8, 31 --> 8,
                 32 --> 8, 33 --> 8, 34 --> 8)
letting n_cars be 219
letting n_classes be 26
letting n_options be 34
letting quantity be
        function(1 --> 16, 2 --> 8, 3 --> 8, 4 --> 8, 5 --> 11, 6 --> 8, 7 --> 8, 8 --> 8, 9 --> 8, 10 --> 8, 11 --> 8,
                 12 --> 8, 13 --> 8, 14 --> 8, 15 --> 8, 16 --> 8, 17 --> 8, 18 --> 8, 19 --> 8, 20 --> 8, 21 --> 8,
                 22 --> 8, 23 --> 8, 24 --> 8, 25 --> 8, 26 --> 8)
letting usage be
        relation((1, 1), (1, 3), (2, 7), (2, 10), (2, 28), (2, 30), (3, 2), (3, 3), (3, 11), (3, 33), (4, 15), (4, 33),
                 (5, 1), (5, 24), (5, 28), (6, 9), (7, 11), (8, 7), (8, 16), (9, 2), (9, 11), (9, 22), (10, 3),
                 (10, 34), (11, 1), (11, 3), (11, 13), (11, 14), (11, 16), (11, 17), (11, 24), (12, 5), (12, 15),
                 (12, 17), (13, 7), (13, 29), (13, 30), (14, 1), (14, 5), (14, 12), (14, 13), (14, 16), (14, 20),
                 (15, 15), (16, 21), (16, 23), (16, 27), (17, 8), (17, 11), (17, 23), (18, 3), (18, 4), (18, 7),
                 (18, 13), (18, 34), (19, 4), (19, 11), (19, 16), (19, 18), (19, 25), (19, 29), (19, 30), (19, 34),
                 (20, 10), (21, 34), (22, 2), (22, 10), (22, 21), (23, 6), (23, 17), (23, 26), (23, 28), (23, 31),
                 (23, 32), (23, 33), (24, 1), (24, 10), (24, 14), (24, 21), (25, 14), (25, 19), (26, 7), (26, 8),
                 (26, 18))
$ Visualisation for usage
$  1  1
$  1  3
$  2  7
$  2 10
$  2 28
$  2 30
$  3  2
$  3  3
$  3 11
$  3 33
$  4 15
$  4 33
$  5  1
$  5 24
$  5 28
$  6  9
$  7 11
$  8  7
$  8 16
$  9  2
$  9 11
$  9 22
$ 10  3
$ 10 34
$ 11  1
$ 11  3
$ 11 13
$ 11 14
$ 11 16
$ 11 17
$ 11 24
$ 12  5
$ 12 15
$ 12 17
$ 13  7
$ 13 29
$ 13 30
$ 14  1
$ 14  5
$ 14 12
$ 14 13
$ 14 16
$ 14 20
$ 15 15
$ 16 21
$ 16 23
$ 16 27
$ 17  8
$ 17 11
$ 17 23
$ 18  3
$ 18  4
$ 18  7
$ 18 13
$ 18 34
$ 19  4
$ 19 11
$ 19 16
$ 19 18
$ 19 25
$ 19 29
$ 19 30
$ 19 34
$ 20 10
$ 21 34
$ 22  2
$ 22 10
$ 22 21
$ 23  6
$ 23 17
$ 23 26
$ 23 28
$ 23 31
$ 23 32
$ 23 33
$ 24  1
$ 24 10
$ 24 14
$ 24 21
$ 25 14
$ 25 19
$ 26  7
$ 26  8
$ 26 18

